nNurses = 149;
nHours = 35;
minHours = 5;
maxHours = 12;
maxConsec = 7;
maxPresence = 24;
demand = [20, 23, 18, 18, 14, 11, 12, 10, 10, 8, 12, 14, 19, 17, 22, 22, 19, 24, 20, 16, 13, 9, 7, 7, 7, 9, 11, 12, 10, 13, 11, 11, 9, 13, 15];
